2023/11/29
gurobi is now 11.0.0
previous version was 10.0.3
solving instance knapsack 10 9 log
Set parameter TokenServer to value "licences.gerad.lan"
Set parameter MIPGap to value 1e-06
Set parameter FuncPieceError to value 1e-06
Set parameter Threads to value 1
Set parameter FuncPieces to value -2
Set parameter TimeLimit to value 3600
Gurobi Optimizer version 12.0.0 build v12.0.0rc1 (linux64 - "AlmaLinux 9.6 (Sage Margay)")

CPU model: Intel(R) Xeon(R) Gold 6258R CPU @ 2.70GHz, instruction set [SSE2|AVX|AVX2|AVX512]
Thread count: 56 physical cores, 56 logical processors, using up to 1 threads

Non-default parameters:
TimeLimit  3600
MIPGap  1e-06
Threads  1
FuncPieces  -2
FuncPieceError  1e-06

Optimize a model with 41 rows, 50 columns and 80 nonzeros
Model fingerprint: 0xffcfb84a
Model has 10 function constraints treated as nonlinear
  10 LOG
Variable types: 40 continuous, 10 integer (10 binary)
Coefficient statistics:
  Matrix range     [2e-01, 1e+02]
  Objective range  [1e+00, 1e+00]
  Bounds range     [1e+02, 1e+10]
  RHS range        [1e+00, 3e+04]
Warning: Model contains large bounds
         Consider reformulating model or setting NumericFocus parameter
         to avoid numerical issues.
Warning: x < 1e-10 in domain of log(x).
         Setting lower bound to 1e-10.
Presolve removed 40 rows and 30 columns
Presolve time: 0.00s
Presolved: 51 rows, 21 columns, 110 nonzeros
Presolved model has 10 nonlinear constraint(s)

Solving non-convex MINLP

Variable types: 21 continuous, 0 integer (0 binary)
Found heuristic solution: objective -222.5742995

Root relaxation: objective -2.308040e+02, 39 iterations, 0.00 seconds (0.00 work units)

    Nodes    |    Current Node    |     Objective Bounds      |     Work
 Expl Unexpl |  Obj  Depth IntInf | Incumbent    BestBd   Gap | It/Node Time

     0     0 -230.80398    0    8 -222.57430 -230.80398  3.70%     -    0s
     0     0 -226.12955    0    7 -222.57430 -226.12955  1.60%     -    0s
     0     0 -223.43452    0    8 -222.57430 -223.43452  0.39%     -    0s
     0     0 -222.80513    0    8 -222.57430 -222.80513  0.10%     -    0s
     0     0 -222.63300    0    8 -222.57430 -222.63300  0.03%     -    0s
     0     0 -222.63085    0    8 -222.57430 -222.63085  0.03%     -    0s
     0     0 -222.59529    0    8 -222.57430 -222.59529  0.01%     -    0s
     0     0 -222.59253    0    8 -222.57430 -222.59253  0.01%     -    0s
     0     0 -222.57878    0    8 -222.57430 -222.57878  0.00%     -    0s
     0     0 -222.57747    0    8 -222.57430 -222.57747  0.00%     -    0s
     0     0 -222.57747    0    8 -222.57430 -222.57747  0.00%     -    0s
     0     0 -222.57746    0    7 -222.57430 -222.57746  0.00%     -    0s
     0     0 -222.57728    0    8 -222.57430 -222.57728  0.00%     -    0s
     0     0 -222.57728    0    8 -222.57430 -222.57728  0.00%     -    0s
     0     2 -222.57728    0    8 -222.57430 -222.57728  0.00%     -    0s
H   56    24                    -222.5743200 -222.57724  0.00%   4.4    0s
H   70    36                    -222.5743210 -222.57724  0.00%   4.9    0s
H   78    38                    -222.5743211 -222.57724  0.00%   5.0    0s
*   80    38              41    -222.5743225 -222.57724  0.00%   5.2    0s
*   81    37              41    -222.5743228 -222.57724  0.00%   5.3    0s

Explored 623 nodes (3911 simplex iterations) in 0.11 seconds (0.03 work units)
Thread count was 1 (of 56 available processors)

Solution count 6: -222.574 -222.574 -222.574 ... -222.574

Optimal solution found (tolerance 1.00e-06)
Best objective -2.225743228014e+02, best bound -2.225745420247e+02, gap 0.0001%

User-callback calls 1550, time in user-callback 0.01 sec
primal_bound = -222.5743228013838, dual_bound = 0.0, gap = 100.0, time = 0.39
